% Datos generados desde el formulario
n = 2;
m = 3;
cosN = 5000;
cosH = 2000;
cosT = 3000;
capN = 7000;
capH = 3000;
capT = 4000;
G = 50;
ns = 1;
ps = 80;
P = [3000, 2000, 5000];
d = [|500, 1000
    |600, 2000
    |700, 3000|];
